NAME : block_23.329778.tour
COMMENT : Length = 329778
COMMENT : Found by LKH-3 [Keld Helsgaun] Mon Feb  2 23:13:25 2026
TYPE : TOUR
DIMENSION : 96
TOUR_SECTION
11
12
22
21
31
32
42
41
50
49
58
67
75
83
90
94
95
91
84
76
68
59
60
51
2
96
1
33
23
13
7
14
24
34
43
52
61
69
77
85
78
70
62
53
44
35
25
15
8
3
4
9
16
26
36
45
54
63
71
79
86
87
80
72
64
55
46
37
27
17
18
19
29
28
38
47
56
65
73
81
88
92
93
89
82
74
66
57
48
39
40
30
20
10
5
6
-1
EOF
